experiment/data/lkh-res/Vrp-Set-P-n65/Vrp-Set-P-n65-lkh/0.lkh1.log
PARAMETER_FILE = baseline_results/cvrp_lkh/Vrp-Set-P-n65/Vrp-Set-P-n65-lkh/0.lkh1.par
Reading PROBLEM_FILE: "baseline_results/cvrp_lkh/Vrp-Set-P-n65/Vrp-Set-P-n65-lkh/0.lkh1.vrp" ... done
ASCENT_CANDIDATES = 50
BACKBONE_TRIALS = 0
BACKTRACKING = NO
# BWTSP =
# CANDIDATE_FILE =
CANDIDATE_SET_TYPE = ALPHA
# DISTANCE =
DEPOT = 1
# EDGE_FILE =
EXCESS = 0.0153846
EXTERNAL_SALESMEN = 0
EXTRA_CANDIDATES = 0 
EXTRA_CANDIDATE_SET_TYPE = QUADRANT
GAIN23 = NO
GAIN_CRITERION = YES
INITIAL_PERIOD = 100
INITIAL_STEP_SIZE = 1
INITIAL_TOUR_ALGORITHM = WALK
# INITIAL_TOUR_FILE = 
INITIAL_TOUR_FRACTION = 1.000
# INPUT_TOUR_FILE = 
KICK_TYPE = 4
KICKS = 1
# MAX_BREADTH =
MAKESPAN = NO
MAX_CANDIDATES = 5 
MAX_SWAPS = 0
MAX_TRIALS = 10000
# MERGE_TOUR_FILE =
MOVE_TYPE = 5 SPECIAL
MTSP_MIN_SIZE = 1
MTSP_MAX_SIZE = 64
# MTSP_SOLUTION_FILE = 
# NONSEQUENTIAL_MOVE_TYPE = 5
# OPTIMUM =
OUTPUT_TOUR_FILE = baseline_results/cvrp_lkh/Vrp-Set-P-n65/Vrp-Set-P-n65-lkh/0.lkh1.tour
PATCHING_A = 1 
PATCHING_C = 0 
# PI_FILE = 
POPMUSIC_INITIAL_TOUR = NO
POPMUSIC_MAX_NEIGHBORS = 5
POPMUSIC_SAMPLE_SIZE = 10
POPMUSIC_SOLUTIONS = 50
POPMUSIC_TRIALS = 1
POPULATION_SIZE = 10
PRECISION = 100
PROBLEM_FILE = baseline_results/cvrp_lkh/Vrp-Set-P-n65/Vrp-Set-P-n65-lkh/0.lkh1.vrp
RECOMBINATION = IPT
RESTRICTED_SEARCH = YES
RUNS = 1
SALESMEN = 10
SCALE = 1
SEED = 1234
# SINTEF_SOLUTION_FILE = 
STOP_AT_OPTIMUM = YES
SUBGRADIENT = YES
# SUBPROBLEM_SIZE =
# SUBPROBLEM_TOUR_FILE = 
SUBSEQUENT_MOVE_TYPE = 5 SPECIAL
SUBSEQUENT_PATCHING = YES
# TIME_LIMIT =
# TOTAL_TIME_LIMIT =
# TOUR_FILE = 
TRACE_LEVEL = 1
VEHICLES = 10

Lower bound = 63957.5, Ascent time = 0.01 sec.
Cand.min = 5, Cand.avg = 5.0, Cand.max = 5
Preprocessing time = 0.01 sec.
* 1: Cost = 0_84425, Time = 0.01 sec. 
Writing OUTPUT_TOUR_FILE: "baseline_results/cvrp_lkh/Vrp-Set-P-n65/Vrp-Set-P-n65-lkh/0.lkh1.tour" ... done
* 2: Cost = 0_84166, Time = 0.02 sec. 
Writing OUTPUT_TOUR_FILE: "baseline_results/cvrp_lkh/Vrp-Set-P-n65/Vrp-Set-P-n65-lkh/0.lkh1.tour" ... done
* 5: Cost = 0_83054, Time = 0.03 sec. 
Writing OUTPUT_TOUR_FILE: "baseline_results/cvrp_lkh/Vrp-Set-P-n65/Vrp-Set-P-n65-lkh/0.lkh1.tour" ... done
* 7: Cost = 0_82905, Time = 0.03 sec. 
Writing OUTPUT_TOUR_FILE: "baseline_results/cvrp_lkh/Vrp-Set-P-n65/Vrp-Set-P-n65-lkh/0.lkh1.tour" ... done
* 27: Cost = 0_82818, Time = 0.07 sec. 
Writing OUTPUT_TOUR_FILE: "baseline_results/cvrp_lkh/Vrp-Set-P-n65/Vrp-Set-P-n65-lkh/0.lkh1.tour" ... done
* 29: Cost = 0_82565, Time = 0.07 sec. 
Writing OUTPUT_TOUR_FILE: "baseline_results/cvrp_lkh/Vrp-Set-P-n65/Vrp-Set-P-n65-lkh/0.lkh1.tour" ... done
* 35: Cost = 0_82530, Time = 0.09 sec. 
Writing OUTPUT_TOUR_FILE: "baseline_results/cvrp_lkh/Vrp-Set-P-n65/Vrp-Set-P-n65-lkh/0.lkh1.tour" ... done
* 50: Cost = 0_81915, Time = 0.12 sec. 
Writing OUTPUT_TOUR_FILE: "baseline_results/cvrp_lkh/Vrp-Set-P-n65/Vrp-Set-P-n65-lkh/0.lkh1.tour" ... done
* 56: Cost = 0_81734, Time = 0.14 sec. 
Writing OUTPUT_TOUR_FILE: "baseline_results/cvrp_lkh/Vrp-Set-P-n65/Vrp-Set-P-n65-lkh/0.lkh1.tour" ... done
* 61: Cost = 0_81606, Time = 0.15 sec. 
Writing OUTPUT_TOUR_FILE: "baseline_results/cvrp_lkh/Vrp-Set-P-n65/Vrp-Set-P-n65-lkh/0.lkh1.tour" ... done
* 73: Cost = 0_81099, Time = 0.18 sec. 
Writing OUTPUT_TOUR_FILE: "baseline_results/cvrp_lkh/Vrp-Set-P-n65/Vrp-Set-P-n65-lkh/0.lkh1.tour" ... done
* 74: Cost = 0_80799, Time = 0.18 sec. 
Writing OUTPUT_TOUR_FILE: "baseline_results/cvrp_lkh/Vrp-Set-P-n65/Vrp-Set-P-n65-lkh/0.lkh1.tour" ... done
* 75: Cost = 0_80795, Time = 0.19 sec. 
Writing OUTPUT_TOUR_FILE: "baseline_results/cvrp_lkh/Vrp-Set-P-n65/Vrp-Set-P-n65-lkh/0.lkh1.tour" ... done
* 76: Cost = 0_80722, Time = 0.19 sec. 
Writing OUTPUT_TOUR_FILE: "baseline_results/cvrp_lkh/Vrp-Set-P-n65/Vrp-Set-P-n65-lkh/0.lkh1.tour" ... done
* 81: Cost = 0_80651, Time = 0.20 sec. 
Writing OUTPUT_TOUR_FILE: "baseline_results/cvrp_lkh/Vrp-Set-P-n65/Vrp-Set-P-n65-lkh/0.lkh1.tour" ... done
* 90: Cost = 0_80559, Time = 0.23 sec. 
Writing OUTPUT_TOUR_FILE: "baseline_results/cvrp_lkh/Vrp-Set-P-n65/Vrp-Set-P-n65-lkh/0.lkh1.tour" ... done
* 92: Cost = 0_80518, Time = 0.24 sec. 
Writing OUTPUT_TOUR_FILE: "baseline_results/cvrp_lkh/Vrp-Set-P-n65/Vrp-Set-P-n65-lkh/0.lkh1.tour" ... done
* 99: Cost = 0_80197, Time = 0.25 sec. 
Writing OUTPUT_TOUR_FILE: "baseline_results/cvrp_lkh/Vrp-Set-P-n65/Vrp-Set-P-n65-lkh/0.lkh1.tour" ... done
* 215: Cost = 0_80078, Time = 0.60 sec. 
Writing OUTPUT_TOUR_FILE: "baseline_results/cvrp_lkh/Vrp-Set-P-n65/Vrp-Set-P-n65-lkh/0.lkh1.tour" ... done
Population:
  1: 0_80078
Run 1: Cost = 0_80078, Time = 29.03 sec. 

Successes/Runs = 0/1 
Cost.min = 80078, Cost.avg = 80078.00, Cost.max = 80078
Gap.min = 0.0000%, Gap.avg = 0.0000%, Gap.max = 0.0000%
Penalty.min = 0, Penalty.avg = 0.00, Penalty.max = 0
Trials.min = 10000, Trials.avg = 10000.0, Trials.max = 10000
Time.min = 29.03 sec., Time.avg = 29.03 sec., Time.max = 29.03 sec.
Time.total = 29.05 sec.
  Size.min = 4, Size.max = 9, Penalty = 0
  Cost.min = 3752, Cost.max = 11874, Cost.sum = 80078
Best CVRP solution:
  Cost = 0_80078

