experiment/data/lkh-res/Vrp-Set-P-n65/Vrp-Set-P-n65-lkh/0.lkh1.tour
NAME : 0.80078.tour
COMMENT : Length = 80078
COMMENT : Found by LKH-3 [Keld Helsgaun] Tue Apr  9 02:42:02 2024
TYPE : TOUR
DIMENSION : 74
TOUR_SECTION
1
5
46
30
6
49
31
69
22
62
29
63
3
73
55
14
58
16
38
21
61
37
48
67
23
65
43
42
44
2
34
66
18
41
33
10
13
71
40
32
26
56
19
51
45
4
72
59
11
39
12
54
70
52
17
50
25
57
24
64
7
68
35
47
53
28
74
27
8
36
15
60
20
9
-1
EOF
